p cnf 116 512
-1 -57 0
-1 -58 0
57 -57 0
58 -58 0
-15 -61 0
-15 -62 0
61 -61 0
62 -62 0
-29 -65 0
-29 -66 0
65 -65 0
66 -66 0
-43 -69 0
-43 -70 0
69 -69 0
70 -70 0
2 -57 0
2 -58 0
57 -57 0
58 -58 0
16 -61 0
16 -62 0
61 -61 0
62 -62 0
30 -65 0
30 -66 0
65 -65 0
66 -66 0
44 -69 0
44 -70 0
69 -69 0
70 -70 0
3 -57 0
3 -58 0
57 -57 0
58 -58 0
17 -61 0
17 -62 0
61 -61 0
62 -62 0
31 -65 0
31 -66 0
65 -65 0
66 -66 0
45 -69 0
45 -70 0
69 -69 0
70 -70 0
4 -73 -57 0
-4 73 -57 0
4 73 -58 0
-4 -73 -58 0
18 -73 -61 0
-18 73 -61 0
18 73 -62 0
-18 -73 -62 0
32 -73 -65 0
-32 73 -65 0
32 73 -66 0
-32 -73 -66 0
46 -73 -69 0
-46 73 -69 0
46 73 -70 0
-46 -73 -70 0
5 -57 0
5 -58 0
57 -57 0
58 -58 0
19 -61 0
19 -62 0
61 -61 0
62 -62 0
33 -65 0
33 -66 0
65 -65 0
66 -66 0
47 -69 0
47 -70 0
69 -69 0
70 -70 0
-6 -57 0
-6 -58 0
57 -57 0
58 -58 0
-20 -61 0
-20 -62 0
61 -61 0
62 -62 0
-34 -65 0
-34 -66 0
65 -65 0
66 -66 0
-48 -69 0
-48 -70 0
69 -69 0
70 -70 0
7 -57 0
7 -58 0
57 -57 0
58 -58 0
21 -61 0
21 -62 0
61 -61 0
62 -62 0
35 -65 0
35 -66 0
65 -65 0
66 -66 0
49 -69 0
49 -70 0
69 -69 0
70 -70 0
8 -74 -57 0
-8 74 -57 0
8 74 -58 0
-8 -74 -58 0
22 -74 -61 0
-22 74 -61 0
22 74 -62 0
-22 -74 -62 0
36 -74 -65 0
-36 74 -65 0
36 74 -66 0
-36 -74 -66 0
50 -74 -69 0
-50 74 -69 0
50 74 -70 0
-50 -74 -70 0
-9 -57 0
-9 -58 0
57 -57 0
58 -58 0
-23 -61 0
-23 -62 0
61 -61 0
62 -62 0
-37 -65 0
-37 -66 0
65 -65 0
66 -66 0
-51 -69 0
-51 -70 0
69 -69 0
70 -70 0
10 -75 -57 0
-10 75 -57 0
10 75 -58 0
-10 -75 -58 0
24 -75 -61 0
-24 75 -61 0
24 75 -62 0
-24 -75 -62 0
38 -75 -65 0
-38 75 -65 0
38 75 -66 0
-38 -75 -66 0
52 -75 -69 0
-52 75 -69 0
52 75 -70 0
-52 -75 -70 0
11 -76 -57 0
-11 76 -57 0
11 76 -58 0
-11 -76 -58 0
25 -76 -61 0
-25 76 -61 0
25 76 -62 0
-25 -76 -62 0
39 -76 -65 0
-39 76 -65 0
39 76 -66 0
-39 -76 -66 0
53 -76 -69 0
-53 76 -69 0
53 76 -70 0
-53 -76 -70 0
12 -57 0
12 -58 0
57 -57 0
58 -58 0
26 -61 0
26 -62 0
61 -61 0
62 -62 0
40 -65 0
40 -66 0
65 -65 0
66 -66 0
54 -69 0
54 -70 0
69 -69 0
70 -70 0
13 -77 -57 0
-13 77 -57 0
13 77 -58 0
-13 -77 -58 0
27 -77 -61 0
-27 77 -61 0
27 77 -62 0
-27 -77 -62 0
41 -77 -65 0
-41 77 -65 0
41 77 -66 0
-41 -77 -66 0
55 -77 -69 0
-55 77 -69 0
55 77 -70 0
-55 -77 -70 0
14 -78 -57 0
-14 78 -57 0
14 78 -58 0
-14 -78 -58 0
28 -78 -61 0
-28 78 -61 0
28 78 -62 0
-28 -78 -62 0
42 -78 -65 0
-42 78 -65 0
42 78 -66 0
-42 -78 -66 0
56 -78 -69 0
-56 78 -69 0
56 78 -70 0
-56 -78 -70 0
-101 57 0
101 -57 0
-102 58 0
101 -58 0
-101 -57 0
-102 -58 0
-105 57 101 0
105 -57 0
105 -101 0
-106 58 102 0
106 -58 0
106 -102 0
-105 -61 0
-106 -62 0
-109 61 105 0
109 -61 0
109 -105 0
-110 62 106 0
110 -62 0
110 -106 0
-109 -65 0
-110 -66 0
-113 65 109 0
113 -65 0
113 -109 0
-114 66 110 0
114 -66 0
114 -110 0
-113 -69 0
-114 -70 0
113 0
114 0
1 -79 -59 0
-1 79 -59 0
1 79 -60 0
-1 -79 -60 0
15 -79 -63 0
-15 79 -63 0
15 79 -64 0
-15 -79 -64 0
29 -79 -67 0
-29 79 -67 0
29 79 -68 0
-29 -79 -68 0
43 -79 -71 0
-43 79 -71 0
43 79 -72 0
-43 -79 -72 0
2 -59 0
2 -60 0
59 -59 0
60 -60 0
16 -63 0
16 -64 0
63 -63 0
64 -64 0
30 -67 0
30 -68 0
67 -67 0
68 -68 0
44 -71 0
44 -72 0
71 -71 0
72 -72 0
3 -59 0
3 -60 0
59 -59 0
60 -60 0
17 -63 0
17 -64 0
63 -63 0
64 -64 0
31 -67 0
31 -68 0
67 -67 0
68 -68 0
45 -71 0
45 -72 0
71 -71 0
72 -72 0
4 -59 0
4 -60 0
59 -59 0
60 -60 0
18 -63 0
18 -64 0
63 -63 0
64 -64 0
32 -67 0
32 -68 0
67 -67 0
68 -68 0
46 -71 0
46 -72 0
71 -71 0
72 -72 0
5 -80 -59 0
-5 80 -59 0
5 80 -60 0
-5 -80 -60 0
19 -80 -63 0
-19 80 -63 0
19 80 -64 0
-19 -80 -64 0
33 -80 -67 0
-33 80 -67 0
33 80 -68 0
-33 -80 -68 0
47 -80 -71 0
-47 80 -71 0
47 80 -72 0
-47 -80 -72 0
-6 -59 0
-6 -60 0
59 -59 0
60 -60 0
-20 -63 0
-20 -64 0
63 -63 0
64 -64 0
-34 -67 0
-34 -68 0
67 -67 0
68 -68 0
-48 -71 0
-48 -72 0
71 -71 0
72 -72 0
7 -81 -59 0
-7 81 -59 0
7 81 -60 0
-7 -81 -60 0
21 -81 -63 0
-21 81 -63 0
21 81 -64 0
-21 -81 -64 0
35 -81 -67 0
-35 81 -67 0
35 81 -68 0
-35 -81 -68 0
49 -81 -71 0
-49 81 -71 0
49 81 -72 0
-49 -81 -72 0
8 -59 0
8 -60 0
59 -59 0
60 -60 0
22 -63 0
22 -64 0
63 -63 0
64 -64 0
36 -67 0
36 -68 0
67 -67 0
68 -68 0
50 -71 0
50 -72 0
71 -71 0
72 -72 0
-9 -59 0
-9 -60 0
59 -59 0
60 -60 0
-23 -63 0
-23 -64 0
63 -63 0
64 -64 0
-37 -67 0
-37 -68 0
67 -67 0
68 -68 0
-51 -71 0
-51 -72 0
71 -71 0
72 -72 0
10 -82 -59 0
-10 82 -59 0
10 82 -60 0
-10 -82 -60 0
24 -82 -63 0
-24 82 -63 0
24 82 -64 0
-24 -82 -64 0
38 -82 -67 0
-38 82 -67 0
38 82 -68 0
-38 -82 -68 0
52 -82 -71 0
-52 82 -71 0
52 82 -72 0
-52 -82 -72 0
11 -59 0
11 -60 0
59 -59 0
60 -60 0
25 -63 0
25 -64 0
63 -63 0
64 -64 0
39 -67 0
39 -68 0
67 -67 0
68 -68 0
53 -71 0
53 -72 0
71 -71 0
72 -72 0
12 -59 0
12 -60 0
59 -59 0
60 -60 0
26 -63 0
26 -64 0
63 -63 0
64 -64 0
40 -67 0
40 -68 0
67 -67 0
68 -68 0
54 -71 0
54 -72 0
71 -71 0
72 -72 0
13 -59 0
13 -60 0
59 -59 0
60 -60 0
27 -63 0
27 -64 0
63 -63 0
64 -64 0
41 -67 0
41 -68 0
67 -67 0
68 -68 0
55 -71 0
55 -72 0
71 -71 0
72 -72 0
14 -59 0
14 -60 0
59 -59 0
60 -60 0
28 -63 0
28 -64 0
63 -63 0
64 -64 0
42 -67 0
42 -68 0
67 -67 0
68 -68 0
56 -71 0
56 -72 0
71 -71 0
72 -72 0
-103 59 0
103 -59 0
-104 60 0
103 -60 0
-103 -59 0
-104 -60 0
-107 59 103 0
107 -59 0
107 -103 0
-108 60 104 0
108 -60 0
108 -104 0
-107 -63 0
-108 -64 0
-111 63 107 0
111 -63 0
111 -107 0
-112 64 108 0
112 -64 0
112 -108 0
-111 -67 0
-112 -68 0
-115 67 111 0
115 -67 0
115 -111 0
-116 68 112 0
116 -68 0
116 -112 0
-115 -71 0
-116 -72 0
115 0
116 0
